NAME : block_04.346053.tour
COMMENT : Length = 346053
COMMENT : Found by LKH-3 [Keld Helsgaun] Wed Apr 22 15:39:10 2026
TYPE : TOUR
DIMENSION : 98
TOUR_SECTION
61
42
23
4
5
24
43
62
81
92
93
82
63
44
25
6
7
26
45
64
83
94
84
65
46
27
8
9
28
47
66
85
86
67
48
29
10
11
30
49
68
87
88
69
50
31
12
13
14
33
32
51
70
71
52
53
34
15
16
35
36
17
18
19
20
39
58
77
76
57
38
37
56
75
74
55
54
73
72
2
98
1
78
59
40
21
3
22
41
60
79
90
89
95
96
97
91
80
-1
EOF
